7,1,3,2,14,3,12,1,10,1,15,1,8,1,1,4,4,4,9,4,6,3,11,3,2,5,5,5,13,5;1,1,14,2,2,3,3,3,4,2,6,2,12,4,7,3,13,3,8,2,15,2,5,4,9,5,10,4,11,5;3,1,1,2,6,1,14,4,9,1,12,3,2,4,5,3,11,2,4,5,13,4,8,3,15,3,7,5,10,5;2,1,4,1,14,5,9,2,7,2,5,2,13,2,12,5,3,4,1,5,10,3,6,4,15,5,11,4,8,5;14,1,13,1,2,2,5,1,1,3,12,2,9,3,4,3,11,1,10,2,7,4,3,5,15,4,8,4,6,5;
